files/upTests/tuple-of-sets2/0006.eprime
language ESSENCE' 1.0

find a_tuple1: int(0..9)
find b_tuple1: int(0..9)
find b_tuple2: int(3..8)
find b_tuple3_SetExplicitVarSizeWithDefault:
        matrix indexed by [int(1..2)] of int(2..4)
find c_tuple1: int(0..9)
find c_tuple2_SetOccurrence: matrix indexed by [int(3..4)] of bool
such that
    b_tuple3_SetExplicitVarSizeWithDefault[1] != 2
    /\
    b_tuple3_SetExplicitVarSizeWithDefault[2] != 2
    ->
    b_tuple3_SetExplicitVarSizeWithDefault[1]
    <
    b_tuple3_SetExplicitVarSizeWithDefault[2],
    b_tuple3_SetExplicitVarSizeWithDefault[1]
    <=
    b_tuple3_SetExplicitVarSizeWithDefault[2],
    c_tuple1 = a_tuple1,
    forAll v__0 : int(3..4)
        . c_tuple2_SetOccurrence[v__0] = true
          <->
          (exists v__1 : int(1..2)
               . b_tuple3_SetExplicitVarSizeWithDefault[v__1] != 2
                 /\
                 b_tuple3_SetExplicitVarSizeWithDefault[v__1] = v__0)
