files/upTests/tuple-of-sets2/0006.eprime.solution
language ESSENCE' 1.0
$ minion Nodes: 6
$ minion TotalTime: 0.001133
$ Savile Row TotalTime: 0.663
letting a_tuple1 be 0
letting b_tuple1 be 0
letting b_tuple2 be 3
letting c_tuple1 be 0
letting b_tuple3_SetExplicitVarSizeWithDefault be [2, 2;int(1..2)]
letting c_tuple2_SetOccurrence be [false, false;int(3..4)]
